Running for instance ./models/rc208.txt
Generating routes...
Execution time:  0.104486683333  minutes
Academic license - for non-commercial use only
Warning: constraint name "Cliente esta na rota" has a space
Optimize a model with 26 rows, 5000 columns and 60246 nonzeros
Variable types: 0 continuous, 5000 integer (0 binary)
Coefficient statistics:
  Matrix range     [1e+00, 1e+00]
  Objective range  [7e+01, 6e+02]
  Bounds range     [1e+00, 1e+00]
  RHS range        [1e+00, 2e+01]
Found heuristic solution: objective 930.2221772
Presolve removed 0 rows and 12 columns
Presolve time: 0.04s
Presolved: 26 rows, 4988 columns, 60193 nonzeros
Variable types: 0 continuous, 4988 integer (4988 binary)

Root relaxation: objective 4.166399e+02, 38 iterations, 0.00 seconds

    Nodes    |    Current Node    |     Objective Bounds      |     Work
 Expl Unexpl |  Obj  Depth IntInf | Incumbent    BestBd   Gap | It/Node Time

*    0     0               0     416.6398503  416.63985  0.00%     -    0s

Explored 0 nodes (38 simplex iterations) in 0.06 seconds
Thread count was 8 (of 8 available processors)

Solution count 2: 416.64 930.222 

Optimal solution found (tolerance 1.00e-04)
Best objective 4.166398503142e+02, best bound 4.166398503142e+02, gap 0.0000%
11 16 12 15 22 21 19 23
6 2 5 3 4 1 7 8 17 14 13 9 10 24 25
Distance: 416.639850314
Execution time:  0.1113729  minutes
